
###### declaração de variáveis 
variable t equal 1.0 

######## configurações da simulação   
units       lj
dimension 3 
atom_style atomic 
neighbor 0.3 bin
neigh_modify every 10 delay 10 check yes 
timestep 0.01

######## Leitura da configuração inicial 
read_data out_0.5.data

mass 1 1.0 

####### Definição do campo de forças 
pair_style  lj/cut 2.5 
pair_coeff 1 1 1.0 1.0 
 

####### Definir a dinâmica e termostato
fix fxstandard all nve
fix fxlange all langevin $t $t 1.0 265358

fix myrec all recenter INIT INIT INIT units box 

##### dados termodinâmicos 
thermo_style  custom step pe ke temp press density lx ly lz
thermo        1000 

##### salvar trajetória 
dump img all custom 100 traj.lammpstrj id type x y z vx vy vz 

run 20000 ##### rodada 

